NAME : prob35e.8521.tour
COMMENT : Cost = 0_8521
COMMENT : Found by LKH [Keld Helsgaun] Sun Sep 17 01:11:06 2017
TYPE : TOUR
DIMENSION : 71
TOUR_SECTION
1
69
71
57
54
66
48
68
52
70
13
49
60
47
44
37
53
43
58
61
18
33
25
35
46
64
8
51
29
12
42
45
40
7
34
50
14
56
9
17
10
63
2
16
65
26
62
39
21
36
27
38
41
15
11
30
67
28
3
32
31
4
6
19
59
55
24
22
20
23
5
-1
EOF
